p cnf 14 64
2 9 13 0
3 -12 -13 0
-2 10 14 0
-2 -3 -10 0
2 7 10 0
2 -5 11 0
7 -10 -14 0
-1 4 9 0
-2 3 9 0
2 -3 4 0
3 -7 9 0
11 13 14 0
1 2 4 0
-8 -9 -10 0
-8 11 12 0
7 -9 12 0
-9 -12 14 0
-6 -10 12 0
1 5 8 0
5 6 -8 0
2 -13 14 0
-2 4 7 0
-7 -9 -13 0
7 -12 -14 0
-5 9 -12 0
-3 -11 12 0
5 -7 -10 0
-1 4 8 0
-1 6 8 0
-3 4 14 0
-5 6 -14 0
-2 4 -13 0
3 -6 7 0
1 4 11 0
8 9 14 0
6 7 -11 0
-2 -4 -13 0
-1 2 3 0
-3 -4 10 0
-7 9 10 0
2 -10 12 0
-3 -12 14 0
2 4 10 0
-4 6 -13 0
3 -7 -8 0
1 -7 -12 0
-2 5 -13 0
-3 7 -10 0
-5 -10 11 0
-7 -8 10 0
-1 2 -9 0
-2 4 5 0
9 -11 -13 0
-9 11 12 0
-1 2 -7 0
2 -11 -14 0
1 -2 10 0
-3 -9 -11 0
-1 -3 -10 0
-5 -9 -13 0
6 10 13 0
1 -7 8 0
9 12 14 0
8 10 -12 0
